c --- [ banner ] -------------------------------------------------------------
c 
c CaDiCaL SAT Solver
c Copyright (c) 2016-2024
c A. Biere, M. Fleury, N. Froleyks, K. Fazekas, F. Pollitt, T. Faller
c JKU Linz, University of Freiburg, TU Wien
c 
c Version 2.1.3 f13d74439a5b5c963ac5b02d05ce93a8098018b8
c g++ (Gentoo 12.3.1_p20230526 p2) 12.3.1 20230526 -Wall -Wextra -O3 -DNDEBUG
c Thu Apr 10 08:26:21 EDT 2025 Linux narval2.narval.calcul.quebec 4.18.0-553.40.1.el8_10.x86_64 x86_64
c 
c --- [ parsing input ] ------------------------------------------------------
c 
c reading DIMACS file from 'cnfs//op_complete_35.cnf'
c opening file to read 'cnfs//op_complete_35.cnf'
c found 'p cnf 1190 39900' header
c parsed 39900 clauses in 0.01 seconds process time
c 
c --- [ options ] ------------------------------------------------------------
c 
c all options are set to their default value
c 
c --- [ solving ] ------------------------------------------------------------
c 
c time measured in process time since initialization
c 
c  seconds  reductions  redundant  irredundant
c         MB    restarts       trail     variables
c          level   conflicts       glue       remaining
c 
c *  0.01  9  0 0   0    0    0  0% 0 39900 1190 100%
c {  0.01  9  0 0   0    0    0  0% 0 39900 1190 100%
c -  0.02  9 51 1   6  325   61 13% 9 39900 1190 100%
c -  0.02 11 67 2  41  946  221 18% 11 39900 1190 100%
c }  0.02 11 72 2  41 1031  258 19% 12 39900 1190 100%
c [  0.02 11  0 2  41 1031  258  0% 0 39900 1190 100%
c O  0.02 11 32 2  41 1032  258 11% 0 39900 1190 100%
c -  0.04 11 37 3  41 1846  518 19% 9 39900 1190 100%
c ]  0.05 11 45 3  42 3032 1192 21% 12 39900 1190 100%
c {  0.05 11 72 3  42 3032 1192 19% 12 39900 1190 100%
c F  0.05 11 72 3  43 3033 1193 19% 12 39900 1190 100%
c -  0.06 11 71 4  46 3047 1019 19% 12 39900 1190 100%
c -  0.07 11 62 5  96 4548 1417 19% 10 39900 1190 100%
c i  0.09 11 51 5 104 5287 1861 17% 9 39900 1188 100%
c i  0.09 11 51 5 104 5294 1865 16% 9 39900 1187 100%
c }  0.09 11 51 5 104 5298 1867 16% 9 39900 1168 98%
c 0  0.09 11 51 5 104 5298 1867 16% 9 39900 1168 98%
c 
c --- [ result ] -------------------------------------------------------------
c 
s UNSATISFIABLE
c 
c --- [ run-time profiling ] -------------------------------------------------
c 
c process time taken by individual solving procedures
c (percentage relative to process time for solving)
c 
c         0.07   82.13% search
c         0.04   45.16% unstable
c         0.03   36.20% stable
c         0.01   17.76% simplify
c         0.01   15.68% parse
c         0.01   11.14% ternary
c         0.00    3.08% probe
c         0.00    0.71% lucky
c   =================================
c         0.08   85.97% solve
c 
c last line shows process time for solving
c (percentage relative to total process time)
c 
c --- [ statistics ] ---------------------------------------------------------
c 
c chronological:              1588        29.97 %  of conflicts
c conflicts:                  5298     66706.12    per second
c decisions:                 18548    233534.37    per second
c fixed:                        22         1.85 %  of all variables
c learned:                    3500        66.06 %  per conflict
c learned_lits:              98222       100.00 %  learned literals
c minimized:                     0         0.00 %  learned literals
c shrunken:                   8647         8.80 %  learned literals
c minishrunken:               3922         3.99 %  learned literals
c otfs:                        996        18.80 %  of conflict
c propagations:             131550         1.66 M  per second
c reduced:                     692        13.06 %  per conflict
c rephased:                      2      2649.00    interval
c restarts:                    104        50.94    interval
c stabilizing:                   1        37.20 %  of conflicts
c subsumed:                    989         2.28 %  of all clauses
c strengthened:                945         2.18 %  of all clauses
c 
c seconds are measured in process time for solving
c 
c --- [ resources ] ----------------------------------------------------------
c 
c total process time since initialization:         0.09    seconds
c total real time since initialization:            0.21    seconds
c maximum resident set size of process:           12.96    MB
c 
c --- [ shutting down ] ------------------------------------------------------
c 
c exit 20
